************************************************************************
file with basedata            : J1201_.BAS
initial value random generator: 24418
************************************************************************
projects                      :  1
jobs (incl. supersource/sink ):  122
horizon                       :  667
RESOURCES
  - renewable                 :  4   R
  - nonrenewable              :  0   N
  - doubly constrained        :  0   D
************************************************************************
PROJECT INFORMATION:
pronr.  113      1     4       0    0    0    6
114      1     5       3    0    0    0
115      1     9       5    0    0    0
116      1     3       0    4    0    0
117      1     1       0    0    4    0
118      1    10       0    9    0    0
119      1     3       0    0    0    7
120      1     8       0    7    0    0
121      1     9       6    0    0    0
122      1     0       0    0    0    0
************************************************************************
RESOURCEAVAILABILITIES:
  R 1  R 2  R 3  R 4
   14   12   13    9
************************************************************************
